101110000001000001101001111000011100101101110001011101110000101101110110110100011100111011101111110001110110101110101010001110111100110010111011011101001001100011110001000100110001011101101100101010001001110100011001100110110110011111000110001001000101100001100100000010000011011011110000101000100000000000000000000110101101010110101001000000100000000011111100100010000100101010011011000000110001010101111011100101100000001100010101101110111101011000111011010000101011000000110101000000000010001010100111101000110000000011001011101110111011000110101101100010101110001110000110